Comps = {frontend0, frontend1, backend0, backend1, database0, database1};
mustComps = {frontend0, frontend1};
Flavs = {tiny, medium, large};
Nodes = {n1, n2, n3};
CRes = {CPU, RAM, storage, bwIn, bwOut};
NRes = {ssl, fwall, encr, avail, latency};
Flav = [{medium, large}, {medium, large}, {tiny, medium, large}, {tiny, medium, large}, {large}, {large}];
Uses = array2d(CompFlavs, CompFlavs, [
	0,0,0,0,0,0,0,1,0,0,0,0,
	0,0,0,0,0,0,0,1,0,0,0,0,
	0,0,0,0,0,0,0,1,0,0,0,0,
	0,0,0,0,0,0,0,1,0,0,0,0,
	0,0,0,0,0,0,0,0,0,0,0,0,
	0,0,0,0,0,0,1,0,0,0,0,0,
	0,0,0,0,0,0,1,0,0,0,0,0,
	0,0,0,0,0,0,0,0,0,0,0,0,
	0,0,0,0,0,0,0,0,0,1,0,0,
	0,0,0,0,0,0,0,0,0,1,0,0,
	0,0,0,0,0,0,0,0,0,0,0,0,
	0,0,0,0,0,0,0,0,0,0,0,0,
]);
mayUse = array2d(Comps, CompFlavs, [
	0,0,0,0,0,0,0,0,0,0,0,0,
	0,0,0,0,0,0,0,0,0,0,0,0,
	0,0,0,0,0,1,1,0,0,0,0,0,
	1,1,1,1,0,0,0,0,1,1,0,0,
	0,0,0,0,0,0,0,0,0,0,0,0,
	0,0,0,0,0,0,0,0,0,0,0,0,
]);
MIN_RBOUNDS = 0;
MAX_RBOUNDS = 1000000;

worstBounds = [0, 0, 0, 0, 0, 0, 0, 0, 0, MAX_RBOUNDS];
bestBounds = [MAX_RBOUNDS - i | i in worstBounds];

comReq = array2d(CompFlavs, Res, [
  4, 498, 207, 577, 584, 0, 0, 1, 95, MAX_RBOUNDS,
  2, 358, 370, 685, 924, 1, 1, 1, 95, MAX_RBOUNDS,
  8, 220, 430, 780, 605, 1, 1, 1, 97, MAX_RBOUNDS,
  2, 242, 261, 222, 510, 1, 1, 1, 97, MAX_RBOUNDS,
  2, 287, 356, 674, 254, 0, 0, 0, 97, MAX_RBOUNDS,
  8, 407, 310, 393, 620, 1, 0, 0, 96, MAX_RBOUNDS,
  4, 380, 230, 903, 454, 1, 1, 0, 96, MAX_RBOUNDS,
  8, 298, 366, 796, 551, 1, 1, 0, 95, MAX_RBOUNDS,
  8, 235, 243, 827, 387, 1, 1, 1, 95, MAX_RBOUNDS,
  2, 321, 378, 527, 393, 0, 0, 1, 96, MAX_RBOUNDS,
  8, 392, 326, 866, 335, 1, 0, 1, 96, MAX_RBOUNDS,
  2, 272, 207, 378, 248, 0, 0, 1, 96, MAX_RBOUNDS,
]);

nodeCap = array2d(Nodes0, Res, [bestBounds[r] | r in Res] ++ [
  16, 122228, 500011, 22685, 12722, 1, 1, 1, 99, 0,
  32, 25720, 265622, 16272, 19017, 1, 1, 1, 99, 0,
  32, 53524, 170873, 17330, 20757, 0, 1, 1, 98, 0,
]);

cost = array2d(Nodes0, Res, [
  0, 0, 0, 0, 0, 0, 0, 0, 0, 0, % no node
  19, 5, 15, 0, 0, 0, 0, 0, 0, 0,
  14, 10, 17, 0, 0, 0, 0, 0, 0, 0,
  12, 6, 21, 0, 0, 0, 0, 0, 0, 0,
]);

carb = array2d(Nodes0, Res, [
  0, 0, 0, 0, 0, 0, 0, 0, 0, 0, % no node
  16, 43, 4, 0, 0, 0, 0, 0, 0, 0,
  39, 1, 6, 0, 0, 0, 0, 0, 0, 0,
  21, 46, 45, 0, 0, 0, 0, 0, 0, 0,
]);

costBudget = 42830;
carbBudget = 30447;

depReq = array4d(Comps, Flavs, Comps, Res, [
  if c1 = frontend0 /\ c2 = backend0 /\ r = N(avail) then
    97
  elseif c1 = frontend0 /\ c2 = backend1 /\ r = N(avail) then
    95
  elseif c1 = frontend1 /\ c2 = backend1 /\ r = N(avail) then
    97
  elseif c1 = frontend1 /\ c2 = backend0 /\ r = N(avail) then
    97
  else
    worstBounds[r]
  endif | c1 in Comps, i in Flavs, c2 in Comps, r in Res]);

linkCap = array3d(Nodes0, Nodes0, Res, [
  if ni = 0 \/ nj = 0 then
    bestBounds[r]
  elseif ni = nj /\ r = N(avail) then
    nodeCap[ni,r]
  elseif {ni, nj} = {n1, n3} /\ r = N(avail) then
    99
  elseif {ni, nj} = {n1, n2} /\ r = N(avail) then
    98
  elseif {ni, nj} = {n2, n3} /\ r = N(avail) then
    99
  else
    worstBounds[r]
  endif | ni in Nodes0, nj in Nodes0, r in Res]);

imp = array2d(Comps, Flavs, [
  3, 4, 8,
  5, 6, 9,
  2, 4, 8,
  1, 3, 8,
  1, 7, 9,
  2, 4, 8,
]);

